c Reduced graph for r125.1_2 generated by Cyril Grelier
p edge 90 158
e 1 2
e 1 3
e 1 4
e 1 9
e 1 14
e 1 19
e 1 25
e 1 26
e 2 3
e 2 14
e 2 15
e 2 22
e 2 25
e 2 32
e 3 9
e 3 14
e 3 19
e 3 25
e 4 9
e 4 19
e 4 24
e 4 26
e 4 35
e 5 7
e 5 8
e 5 10
e 5 38
e 5 49
e 5 51
e 6 12
e 6 16
e 6 23
e 6 34
e 6 42
e 6 46
e 7 8
e 7 10
e 7 38
e 7 59
e 7 61
e 8 10
e 8 38
e 8 59
e 8 61
e 9 14
e 9 19
e 9 26
e 10 38
e 10 49
e 10 51
e 11 18
e 11 20
e 11 21
e 11 36
e 11 45
e 12 13
e 12 16
e 12 23
e 12 41
e 13 23
e 13 37
e 13 41
e 13 52
e 14 25
e 15 22
e 15 32
e 15 37
e 15 52
e 16 23
e 16 34
e 16 42
e 17 29
e 17 30
e 17 31
e 17 33
e 17 50
e 18 20
e 18 21
e 18 36
e 18 45
e 19 26
e 20 21
e 20 36
e 20 45
e 21 36
e 21 55
e 22 24
e 22 32
e 22 39
e 23 41
e 24 35
e 24 39
e 24 47
e 27 66
e 27 74
e 27 75
e 27 77
e 28 40
e 28 43
e 28 44
e 28 56
e 29 30
e 29 31
e 29 33
e 30 31
e 30 33
e 31 33
e 32 37
e 34 46
e 34 87
e 35 39
e 35 47
e 37 52
e 39 47
e 40 43
e 40 44
e 42 46
e 43 44
e 48 71
e 48 85
e 48 87
e 49 51
e 50 67
e 50 69
e 53 63
e 53 64
e 53 86
e 54 78
e 54 84
e 54 90
e 55 56
e 55 68
e 56 68
e 57 58
e 57 65
e 57 81
e 58 81
e 58 86
e 59 61
e 60 65
e 60 80
e 60 89
e 62 70
e 62 82
e 63 64
e 66 77
e 67 69
e 70 82
e 71 85
e 72 76
e 72 79
e 73 83
e 73 88
e 74 75
e 76 79
e 78 84
e 80 89
e 83 88
